p cnf 826 1172
-473 -470 1 0
473 470 1 0
-629 -471 2 0
629 471 2 0
-435 -632 472 3 0
435 -472 3 0
632 -472 3 0
-389 -390 -391 473 4 0
389 -473 4 0
390 -473 4 0
391 -473 4 0
534 662 -474 5 0
-534 474 5 0
-662 474 5 0
534 662 -475 6 0
-534 475 6 0
-662 475 6 0
-535 -633 -387 -476 7 0
535 476 7 0
633 476 7 0
387 476 7 0
-819 -710 -526 -477 8 0
819 477 8 0
710 477 8 0
526 477 8 0
518 669 478 9 0
-518 -478 9 0
-669 -478 9 0
-799 -479 10 0
799 479 10 0
-475 -545 -480 11 0
475 480 11 0
545 480 11 0
-774 -441 -481 12 0
774 481 12 0
441 481 12 0
-633 -535 -393 482 13 0
633 -482 13 0
535 -482 13 0
393 -482 13 0
-525 -672 -483 14 0
525 483 14 0
672 483 14 0
-772 -484 15 0
772 484 15 0
-421 -417 485 16 0
421 -485 16 0
417 -485 16 0
-501 451 17 0
501 -451 17 0
480 428 -486 18 0
-480 486 18 0
-428 486 18 0
-735 -577 -487 19 0
735 487 19 0
577 487 19 0
-674 -701 -488 20 0
674 488 20 0
701 488 20 0
-530 -489 21 0
530 489 21 0
-514 -619 490 22 0
514 -490 22 0
619 -490 22 0
-428 -429 -491 23 0
428 491 23 0
429 491 23 0
-413 -764 492 24 0
413 -492 24 0
764 -492 24 0
-689 -493 25 0
689 493 25 0
-426 -427 -494 26 0
426 494 26 0
427 494 26 0
-716 -543 495 27 0
716 -495 27 0
543 -495 27 0
-489 -496 28 0
489 496 28 0
-665 -617 -497 29 0
665 497 29 0
617 497 29 0
-411 -764 498 30 0
411 -498 30 0
764 -498 30 0
602 492 499 31 0
-602 -499 31 0
-492 -499 31 0
-437 -480 500 32 0
437 -500 32 0
480 -500 32 0
-778 -501 33 0
778 501 33 0
705 732 502 34 0
-705 -502 34 0
-732 -502 34 0
788 624 503 35 0
-788 -503 35 0
-624 -503 35 0
-749 -504 36 0
749 504 36 0
-746 -505 37 0
746 505 37 0
-434 -569 506 38 0
434 -506 38 0
569 -506 38 0
-476 -384 -507 39 0
476 507 39 0
384 507 39 0
696 512 508 40 0
-696 -508 40 0
-512 -508 40 0
-443 -509 41 0
443 509 41 0
660 767 510 42 0
-660 -510 42 0
-767 -510 42 0
-434 -605 511 43 0
434 -511 43 0
605 -511 43 0
-557 444 44 0
557 -444 44 0
-408 -764 512 45 0
408 -512 45 0
764 -512 45 0
-666 448 46 0
666 -448 46 0
-654 -431 -513 47 0
654 513 47 0
431 513 47 0
-814 -514 48 0
814 514 48 0
-435 -805 515 49 0
435 -515 49 0
805 -515 49 0
409 410 -516 50 0
-409 516 50 0
-410 516 50 0
789 780 517 51 0
-789 -517 51 0
-780 -517 51 0
747 640 518 52 0
-747 -518 52 0
-640 -518 52 0
704 584 519 53 0
-704 -519 53 0
-584 -519 53 0
-614 -520 54 0
614 520 54 0
-433 -409 521 55 0
433 -521 55 0
409 -521 55 0
-806 464 56 0
806 -464 56 0
-385 -417 522 57 0
385 -522 57 0
417 -522 57 0
-422 -507 523 58 0
422 -523 58 0
507 -523 58 0
578 695 524 59 0
-578 -524 59 0
-695 -524 59 0
-711 -525 60 0
711 525 60 0
-513 -526 61 0
513 526 61 0
-668 -426 -527 62 0
668 527 62 0
426 527 62 0
773 692 528 63 0
-773 -528 63 0
-692 -528 63 0
-437 -550 529 64 0
437 -529 64 0
550 -529 64 0
-743 -800 -539 -530 65 0
743 530 65 0
800 530 65 0
539 530 65 0
-420 -482 531 66 0
420 -531 66 0
482 -531 66 0
-710 -526 -532 67 0
710 532 67 0
526 532 67 0
-782 453 68 0
782 -453 68 0
-632 -761 533 69 0
632 -533 69 0
761 -533 69 0
-509 -534 70 0
509 534 70 0
-520 -535 71 0
520 535 71 0
-664 -536 72 0
664 536 72 0
754 604 537 73 0
-754 -537 73 0
-604 -537 73 0
-384 -385 -386 -387 -538 74 0
384 538 74 0
385 538 74 0
386 538 74 0
387 538 74 0
807 713 539 75 0
-807 -539 75 0
-713 -539 75 0
-688 -540 76 0
688 540 76 0
-751 -541 77 0
751 541 77 0
644 682 542 78 0
-644 -542 78 0
-682 -542 78 0
-591 -543 79 0
591 543 79 0
-389 -395 -544 80 0
389 544 80 0
395 544 80 0
576 498 545 81 0
-576 -545 81 0
-498 -545 81 0
-387 -417 546 82 0
387 -546 82 0
417 -546 82 0
-796 -431 -547 83 0
796 547 83 0
431 547 83 0
411 412 -548 84 0
-411 548 84 0
-412 548 84 0
717 609 549 85 0
-717 -549 85 0
-609 -549 85 0
-651 -560 -550 86 0
651 550 86 0
560 550 86 0
-422 -482 613 87 0
422 -613 87 0
482 -613 87 0
-796 -424 552 88 0
796 -552 88 0
424 -552 88 0
-435 -644 553 89 0
435 -553 89 0
644 -553 89 0
-703 -503 -739 -554 90 0
703 554 90 0
503 554 90 0
739 554 90 0
-434 -620 787 91 0
434 -787 91 0
620 -787 91 0
-585 -761 -556 92 0
585 556 92 0
761 556 92 0
-389 -399 -391 557 93 0
389 -557 93 0
399 -557 93 0
391 -557 93 0
-433 -413 558 94 0
433 -558 94 0
413 -558 94 0
615 425 -559 95 0
-615 559 95 0
-425 559 95 0
-435 -777 788 96 0
435 -788 96 0
777 -788 96 0
-550 -427 -561 97 0
550 561 97 0
427 561 97 0
-593 -641 -562 98 0
593 562 98 0
641 562 98 0
805 441 563 99 0
-805 -563 99 0
-441 -563 99 0
-796 -426 564 100 0
796 -564 100 0
426 -564 100 0
-811 -565 101 0
811 565 101 0
515 684 566 102 0
-515 -566 102 0
-684 -566 102 0
777 551 567 103 0
-777 -567 103 0
-551 -567 103 0
517 676 568 104 0
-517 -568 104 0
-676 -568 104 0
721 598 569 105 0
-721 -569 105 0
-598 -569 105 0
-795 -516 -570 106 0
795 570 106 0
516 570 106 0
-720 -571 107 0
720 571 107 0
603 737 572 108 0
-603 -572 108 0
-737 -572 108 0
-559 -593 -641 -573 109 0
559 573 109 0
593 573 109 0
641 573 109 0
-419 -507 574 110 0
419 -574 110 0
507 -574 110 0
-675 -723 -575 111 0
675 575 111 0
723 575 111 0
-418 -507 576 112 0
418 -576 112 0
507 -576 112 0
-742 454 113 0
742 -454 113 0
415 519 -577 114 0
-415 577 114 0
-519 577 114 0
-433 -411 578 115 0
433 -578 115 0
411 -578 115 0
-659 -579 116 0
659 579 116 0
-471 458 117 0
471 -458 117 0
-766 461 118 0
766 -461 118 0
-419 -482 580 119 0
419 -580 119 0
482 -580 119 0
-436 -641 581 120 0
436 -581 120 0
641 -581 120 0
-535 -387 -592 582 121 0
535 -582 121 0
387 -582 121 0
592 -582 121 0
-433 -412 583 122 0
433 -583 122 0
412 -583 122 0
-649 -540 584 123 0
649 -584 123 0
540 -584 123 0
550 427 -585 124 0
-550 585 124 0
-427 585 124 0
-670 -791 -626 -586 125 0
670 586 125 0
791 586 125 0
626 586 125 0
-435 -747 587 126 0
435 -587 126 0
747 -587 126 0
-434 -568 588 127 0
434 -588 127 0
568 -588 127 0
-731 -589 128 0
731 589 128 0
-781 447 129 0
781 -447 129 0
-710 -664 590 130 0
710 -590 130 0
664 -590 130 0
-744 462 131 0
744 -462 131 0
-810 -658 -591 132 0
810 591 132 0
658 591 132 0
-725 445 133 0
725 -445 133 0
-389 -399 -400 592 134 0
389 -592 134 0
399 -592 134 0
400 -592 134 0
668 426 -593 135 0
-668 593 135 0
-426 593 135 0
-595 -594 136 0
595 594 136 0
-491 -655 -595 137 0
491 595 137 0
655 595 137 0
-424 -425 -596 138 0
424 596 138 0
425 596 138 0
-524 -510 -687 -770 -597 139 0
524 597 139 0
510 597 139 0
687 597 139 0
770 597 139 0
-590 -706 598 140 0
590 -598 140 0
706 -598 140 0
-480 -428 -599 141 0
480 599 141 0
428 599 141 0
606 815 600 142 0
-606 -600 142 0
-815 -600 142 0
-595 -646 601 143 0
595 -601 143 0
646 -601 143 0
-420 -507 602 144 0
420 -602 144 0
507 -602 144 0
-433 -408 603 145 0
433 -603 145 0
408 -603 145 0
-804 -621 604 146 0
804 -604 146 0
621 -604 146 0
652 533 605 147 0
-652 -605 147 0
-533 -605 147 0
387 391 606 148 0
-387 -606 148 0
-391 -606 148 0
-714 -607 149 0
714 607 149 0
-536 -608 150 0
536 608 150 0
-436 -536 609 151 0
436 -609 151 0
536 -609 151 0
-394 -399 -391 610 152 0
394 -610 152 0
399 -610 152 0
391 -610 152 0
-623 -745 -611 153 0
623 611 153 0
745 611 153 0
-796 -428 612 154 0
796 -612 154 0
428 -612 154 0
813 544 -659 155 0
-813 659 155 0
-544 659 155 0
-384 -388 -392 614 156 0
384 -614 156 0
388 -614 156 0
392 -614 156 0
-508 -677 -615 157 0
508 615 157 0
677 615 157 0
430 431 -616 158 0
-430 616 158 0
-431 616 158 0
642 775 617 159 0
-642 -617 159 0
-775 -617 159 0
-597 -618 160 0
597 618 160 0
-551 -812 -619 161 0
551 619 161 0
812 619 161 0
542 650 620 162 0
-542 -620 162 0
-650 -620 162 0
-608 -532 -683 -621 163 0
608 621 163 0
532 621 163 0
683 621 163 0
-784 -630 -622 164 0
784 622 164 0
630 622 164 0
-415 -647 -623 165 0
415 623 165 0
647 623 165 0
-410 -764 671 166 0
410 -671 166 0
764 -671 166 0
-819 -536 -625 167 0
819 625 167 0
536 625 167 0
529 763 626 168 0
-529 -626 168 0
-763 -626 168 0
-575 -627 169 0
575 627 169 0
-639 463 170 0
639 -463 170 0
-384 -388 -386 -387 -628 171 0
384 628 171 0
388 628 171 0
386 628 171 0
387 628 171 0
-434 -537 695 172 0
434 -695 172 0
537 -695 172 0
407 408 -630 173 0
-407 630 173 0
-408 630 173 0
-808 -631 174 0
808 631 174 0
-679 449 175 0
679 -449 175 0
-585 -561 632 176 0
585 -632 176 0
561 -632 176 0
-394 -423 -633 177 0
394 633 177 0
423 633 177 0
587 801 634 178 0
-587 -634 178 0
-801 -634 178 0
768 756 635 179 0
-768 -635 179 0
-756 -635 179 0
-686 -734 -690 -636 180 0
686 636 180 0
734 636 180 0
690 636 180 0
-631 -678 181 0
631 678 181 0
534 662 -638 182 0
-534 638 182 0
-662 638 182 0
-618 -639 183 0
618 639 183 0
-661 -556 -640 184 0
661 640 184 0
556 640 184 0
-561 -641 185 0
561 641 185 0
-418 -482 642 186 0
418 -642 186 0
482 -642 186 0
-570 -643 187 0
570 643 187 0
-486 -599 644 188 0
486 -644 188 0
599 -644 188 0
-741 -645 189 0
741 645 189 0
-762 -616 -646 190 0
762 646 190 0
616 646 190 0
794 798 647 191 0
-794 -647 191 0
-798 -647 191 0
-497 -424 -648 192 0
497 648 192 0
424 648 192 0
-752 -649 193 0
752 649 193 0
-644 -682 650 194 0
644 -650 194 0
682 -650 194 0
485 671 651 195 0
-485 -651 195 0
-671 -651 195 0
632 761 652 196 0
-632 -652 196 0
-761 -652 196 0
699 495 653 197 0
-699 -653 197 0
-495 -653 197 0
-638 -697 -654 198 0
638 654 198 0
697 654 198 0
-653 460 199 0
653 -460 199 0
428 429 -655 200 0
-428 655 200 0
-429 655 200 0
-493 467 201 0
493 -467 201 0
-611 -656 202 0
611 656 202 0
-486 -682 -657 203 0
486 657 203 0
682 657 203 0
740 432 -658 204 0
-740 658 204 0
-432 658 204 0
-678 -776 -573 -757 -551 205 0
678 551 205 0
776 551 205 0
573 551 205 0
757 551 205 0
-435 -804 660 206 0
435 -660 206 0
804 -660 206 0
-641 -661 207 0
641 661 207 0
-535 -592 -393 -662 208 0
535 662 208 0
592 662 208 0
393 662 208 0
-411 -412 -663 209 0
411 663 209 0
412 663 209 0
-802 -430 -664 210 0
802 664 210 0
430 664 210 0
522 771 665 211 0
-522 -665 211 0
-771 -665 211 0
-538 -666 212 0
538 666 212 0
-433 -410 667 213 0
433 -667 213 0
410 -667 213 0
-816 -637 -668 214 0
816 668 214 0
637 668 214 0
-747 -640 669 215 0
747 -669 215 0
640 -669 215 0
521 511 670 216 0
-521 -670 216 0
-511 -670 216 0
-436 -814 624 217 0
436 -624 217 0
814 -624 217 0
-610 -672 218 0
610 672 218 0
528 416 -673 219 0
-528 673 219 0
-416 673 219 0
534 662 -674 220 0
-534 674 220 0
-662 674 220 0
-413 -414 -675 221 0
413 675 221 0
414 675 221 0
-789 -780 676 222 0
789 -676 222 0
780 -676 222 0
580 726 677 223 0
-580 -677 223 0
-726 -677 223 0
531 719 637 224 0
-531 -637 224 0
-719 -637 224 0
628 473 -679 225 0
-628 679 225 0
-473 679 225 0
-805 -441 680 226 0
805 -680 226 0
441 -680 226 0
-785 465 227 0
785 -465 227 0
-727 -681 228 0
727 681 228 0
-790 -625 -477 -724 -682 229 0
790 682 229 0
625 682 229 0
477 682 229 0
724 682 229 0
-710 -774 -441 -683 230 0
710 683 230 0
774 683 230 0
441 683 230 0
-436 -526 684 231 0
436 -684 231 0
526 -684 231 0
-572 -634 -803 -685 232 0
572 685 232 0
634 685 232 0
803 685 232 0
-681 457 233 0
681 -457 233 0
667 787 686 234 0
-667 -686 234 0
-787 -686 234 0
730 825 687 235 0
-730 -687 235 0
-825 -687 235 0
-494 -700 -688 236 0
494 688 236 0
700 688 236 0
-554 -689 237 0
554 689 237 0
500 612 690 238 0
-500 -690 238 0
-612 -690 238 0
-600 -394 -423 -535 -691 239 0
600 691 239 0
394 691 239 0
423 691 239 0
535 691 239 0
-589 -627 692 240 0
589 -692 240 0
627 -692 240 0
-389 -390 -391 693 241 0
389 -693 241 0
390 -693 241 0
391 -693 241 0
-555 452 242 0
555 -452 242 0
-394 -390 -391 694 243 0
394 -694 243 0
390 -694 243 0
391 -694 243 0
-565 450 244 0
565 -450 244 0
-405 -722 -629 245 0
405 629 245 0
722 629 245 0
-392 -417 696 246 0
392 -696 246 0
417 -696 246 0
523 712 697 247 0
-523 -697 247 0
-712 -697 247 0
-434 -783 698 248 0
434 -698 248 0
783 -698 248 0
-487 -591 699 249 0
487 -699 249 0
591 -699 249 0
426 427 -700 250 0
-426 700 250 0
-427 700 250 0
574 769 701 251 0
-574 -701 251 0
-769 -701 251 0
-796 -430 -702 252 0
796 702 252 0
430 702 252 0
758 698 703 253 0
-758 -703 253 0
-698 -703 253 0
-752 -688 704 254 0
752 -704 254 0
688 -704 254 0
-611 -749 705 255 0
611 -705 255 0
749 -705 255 0
-484 469 256 0
484 -469 256 0
-729 -481 -706 257 0
729 706 257 0
481 706 257 0
-437 -802 707 258 0
437 -707 258 0
802 -707 258 0
-509 -582 708 259 0
509 -708 259 0
582 -708 259 0
-436 -631 709 260 0
436 -709 260 0
631 -709 260 0
802 430 -710 261 0
-802 710 261 0
-430 710 261 0
-384 -385 -392 -387 -711 262 0
384 711 262 0
385 711 262 0
392 711 262 0
387 711 262 0
-414 -764 712 263 0
414 -712 263 0
764 -712 263 0
-796 -425 713 264 0
796 -713 264 0
425 -713 264 0
-738 -549 -748 -702 -714 265 0
738 714 265 0
549 714 265 0
748 714 265 0
702 714 265 0
-437 -668 715 266 0
437 -715 266 0
668 -715 266 0
-487 -716 267 0
487 716 267 0
-435 -590 717 268 0
435 -717 268 0
590 -717 268 0
-593 -585 -761 -718 269 0
593 718 269 0
585 718 269 0
761 718 269 0
-509 -582 719 270 0
509 -719 270 0
582 -719 270 0
-759 -566 -635 -547 -720 271 0
759 720 271 0
566 720 271 0
635 720 271 0
547 720 271 0
-502 459 272 0
502 -459 272 0
590 706 721 273 0
-590 -721 273 0
-706 -721 273 0
403 404 -722 274 0
-403 722 274 0
-404 722 274 0
413 414 -723 275 0
-413 723 275 0
-414 723 275 0
-819 -710 -774 -441 -724 276 0
819 724 276 0
710 724 276 0
774 724 276 0
441 724 276 0
-389 -390 -400 725 277 0
389 -725 277 0
390 -725 277 0
400 -725 277 0
-509 -582 726 278 0
509 -726 278 0
582 -726 278 0
813 809 -727 279 0
-813 727 279 0
-809 727 279 0
-614 -728 280 0
614 728 280 0
-526 -729 281 0
526 729 281 0
-438 -439 730 282 0
438 -730 282 0
439 -730 282 0
-663 -548 -731 283 0
663 731 283 0
548 731 283 0
-656 -504 732 284 0
656 -732 284 0
504 -732 284 0
-437 -497 733 285 0
437 -733 285 0
497 -733 285 0
553 765 734 286 0
-553 -734 286 0
-765 -734 286 0
-415 -519 -735 287 0
415 735 287 0
519 735 287 0
-479 466 288 0
479 -466 288 0
-777 -551 736 289 0
777 -736 289 0
551 -736 289 0
-434 -478 737 290 0
434 -737 290 0
478 -737 290 0
583 506 738 291 0
-583 -738 291 0
-506 -738 291 0
733 552 739 292 0
-733 -739 292 0
-552 -739 292 0
601 821 740 293 0
-601 -740 293 0
-821 -740 293 0
-817 -397 741 294 0
817 -741 294 0
397 -741 294 0
628 470 -742 295 0
-628 742 295 0
-470 742 295 0
820 588 743 296 0
-820 -743 296 0
-588 -743 296 0
-822 -744 297 0
822 744 297 0
415 647 -745 298 0
-415 745 298 0
-647 745 298 0
-693 446 299 0
693 -446 299 0
-599 -746 300 0
599 746 300 0
-593 -527 747 301 0
593 -747 301 0
527 -747 301 0
779 707 748 302 0
-779 -748 302 0
-707 -748 302 0
-818 -673 -749 303 0
818 749 303 0
673 749 303 0
-394 -391 -395 -396 -750 304 0
394 750 304 0
391 750 304 0
395 750 304 0
396 750 304 0
-488 -429 -751 305 0
488 751 305 0
429 751 305 0
-596 -760 -752 306 0
596 752 306 0
760 752 306 0
-646 -753 307 0
646 753 307 0
804 621 754 308 0
-804 -754 308 0
-621 -754 308 0
563 680 755 309 0
-563 -755 309 0
-680 -755 309 0
-437 -654 756 310 0
437 -756 310 0
654 -756 310 0
813 750 817 311 0
-813 -817 311 0
-750 -817 311 0
-433 -534 758 312 0
433 -758 312 0
534 -758 312 0
558 826 759 313 0
-558 -759 313 0
-826 -759 313 0
424 425 -760 314 0
-424 760 314 0
-425 760 314 0
-657 -505 -761 315 0
657 761 315 0
505 761 315 0
-430 -431 -762 316 0
430 762 316 0
431 762 316 0
-796 -427 763 317 0
796 -763 317 0
427 -763 317 0
-691 -483 -764 318 0
691 764 318 0
483 764 318 0
-436 -746 765 319 0
436 -765 319 0
746 -765 319 0
-571 -766 320 0
571 766 320 0
-436 -541 767 321 0
436 -767 321 0
541 -767 321 0
-438 -442 768 322 0
438 -768 322 0
442 -768 322 0
-412 -764 769 323 0
412 -769 323 0
764 -769 323 0
-796 -429 -770 324 0
796 770 324 0
429 770 324 0
-407 -764 771 325 0
407 -771 325 0
764 -771 325 0
-685 -772 326 0
685 772 326 0
-731 -575 773 327 0
731 -773 327 0
575 -773 327 0
654 431 -774 328 0
-654 774 328 0
-431 774 328 0
-509 -582 775 329 0
509 -775 329 0
582 -775 329 0
-559 -792 -776 330 0
559 776 330 0
792 776 330 0
-812 -648 777 331 0
812 -777 331 0
648 -777 331 0
-394 -390 -400 778 332 0
394 -778 332 0
390 -778 332 0
400 -778 332 0
-438 -440 779 333 0
438 -779 333 0
440 -779 333 0
-786 -562 -718 -780 334 0
786 780 334 0
562 780 334 0
718 780 334 0
-401 -402 781 335 0
401 -781 335 0
402 -781 335 0
-406 -722 782 336 0
406 -782 336 0
722 -782 336 0
567 736 783 337 0
-567 -783 337 0
-736 -783 337 0
-407 -408 -784 338 0
407 784 338 0
408 784 338 0
-490 -785 339 0
490 785 339 0
-792 -786 340 0
792 786 340 0
-694 -555 341 0
694 555 341 0
613 708 560 342 0
-613 -560 342 0
-708 -560 342 0
-559 -808 789 343 0
559 -789 343 0
808 -789 343 0
-541 -790 344 0
541 790 344 0
-824 455 345 0
824 -455 345 0
472 581 791 346 0
-472 -791 346 0
-581 -791 346 0
-527 -792 347 0
527 792 347 0
-409 -764 823 348 0
409 -823 348 0
764 -823 348 0
-622 -570 794 349 0
622 -794 349 0
570 -794 349 0
-409 -410 -795 350 0
409 795 350 0
410 795 350 0
-645 -796 351 0
645 796 351 0
-622 -797 352 0
622 797 352 0
-797 -643 798 353 0
797 -798 353 0
643 -798 353 0
-586 -799 354 0
586 799 354 0
793 709 800 355 0
-793 -800 355 0
-709 -800 355 0
-436 -792 801 356 0
436 -801 356 0
792 -801 356 0
-474 -499 -802 357 0
474 802 357 0
499 802 357 0
715 564 803 358 0
-715 -803 358 0
-564 -803 358 0
-819 -751 804 359 0
819 -804 359 0
751 -804 359 0
-774 -513 805 360 0
774 -805 360 0
513 -805 360 0
-607 -806 361 0
607 806 361 0
-496 468 362 0
496 -468 362 0
-437 -615 807 363 0
437 -807 363 0
615 -807 363 0
-615 -425 -808 364 0
615 808 364 0
425 808 364 0
-394 -395 -398 -809 365 0
394 809 365 0
395 809 365 0
398 809 365 0
-740 -432 -810 366 0
740 810 366 0
432 810 366 0
-579 456 367 0
579 -456 367 0
-394 -399 -400 811 368 0
394 -811 368 0
399 -811 368 0
400 -811 368 0
497 424 -812 369 0
-497 812 369 0
-424 812 369 0
-384 -385 -386 -393 -813 370 0
384 813 370 0
385 813 370 0
386 813 370 0
393 813 370 0
-648 -814 371 0
648 814 371 0
-387 -391 815 372 0
387 -815 372 0
391 -815 372 0
546 823 816 373 0
-546 -816 373 0
-823 -816 373 0
-559 -593 -585 -761 -757 374 0
559 757 374 0
593 757 374 0
585 757 374 0
761 757 374 0
-528 -416 -818 375 0
528 818 375 0
416 818 375 0
488 429 -819 376 0
-488 819 376 0
-429 819 376 0
-433 -407 820 377 0
433 -820 377 0
407 -820 377 0
-594 -753 821 378 0
594 -821 378 0
753 -821 378 0
-636 -822 379 0
636 822 379 0
-435 -789 793 380 0
435 -793 380 0
789 -793 380 0
-728 -824 381 0
728 824 381 0
-437 -488 825 382 0
437 -825 382 0
488 -825 382 0
-434 -755 826 383 0
434 -826 383 0
755 -826 383 0
384 0
-385 0
386 0
387 0
-388 0
-389 0
-390 0
391 0
-392 0
393 0
394 0
395 0
396 0
-397 0
398 0
399 0
400 0
-401 0
402 0
403 0
404 0
-405 0
-406 0
407 0
-408 0
-409 0
-410 0
-411 0
-412 0
413 0
414 0
415 0
416 0
417 0
418 0
-419 0
-420 0
421 0
422 0
-423 0
-424 0
-425 0
426 0
427 0
428 0
-429 0
-430 0
431 0
-432 0
433 0
-434 0
-435 0
-436 0
-437 0
438 0
-439 0
440 0
-441 0
442 0
443 0
-444 0 
-445 0 
-446 0 
-447 0 
-448 0 
-449 0 
-450 0 
-451 0 
-452 0 
-453 0 
-454 0 
-455 0 
-456 0 
-457 0 
-458 0 
-459 0 
-460 0 
-461 0 
-462 0 
-463 0 
-464 0 
-465 0 
-466 0 
-467 0 
-468 0 
-469 0 